p edge 24 30
e 1 11
e 1 12
e 2 10
e 2 11
e 2 17
e 3 5
e 3 10
e 3 16
e 3 18
e 3 22
e 4 15
e 4 23
e 5 8
e 5 13
e 6 20
e 6 21
e 7 12
e 7 13
e 7 14
e 8 9
e 9 23
e 10 18
e 10 22
e 11 19
e 11 22
e 12 14
e 13 24
e 14 21
e 19 22
e 19 23
